num_plantas = 3;     
num_dias = 2;        
num_clientes = 2;    

coste_produccion = [5, 10, 15];  

capacidad_maxima = [100, 80, 120];  

demanda_diaria = array2d(1..num_clientes, 1..num_dias, [|
  50, 60 | 
  70, 40 |  
|]);

porcentaje_minimo = 50;

pago_por_mw = [20, 25];  

porcentaje_regimen_alto = [80, 80, 80]; 
max_dias_regimen_alto = [1, 1, 1];